analyze/results_flowersnark/final_miplib_symretope_if_extended_generating_set_cpx_v802__settings_final_nosym_norestarts__2__neos-525149.mps.gz.sol
solution status: optimal solution found
objective value:                                   61
C0044                                               1 	(obj:1)
C0143                                               1 	(obj:1)
C0214                                               1 	(obj:1)
C0226                                               1 	(obj:1)
C0313                                               1 	(obj:1)
C0342                                               1 	(obj:1)
C0441                                               1 	(obj:1)
C0476                                               1 	(obj:1)
C0529                                               1 	(obj:1)
C0627                                               1 	(obj:1)
C0695                                               1 	(obj:1)
C0728                                               1 	(obj:1)
C0774                                               1 	(obj:1)
C0872                                               1 	(obj:1)
C0881                                               1 	(obj:1)
C0945                                               1 	(obj:1)
C1018                                               1 	(obj:1)
C1063                                               1 	(obj:1)
C1180                                               1 	(obj:1)
C1187                                               1 	(obj:1)
C1289                                               1 	(obj:1)
C1317                                               1 	(obj:1)
C1372                                               1 	(obj:1)
C1446                                               1 	(obj:1)
C1488                                               1 	(obj:1)
C1576                                               1 	(obj:1)
C1644                                               1 	(obj:1)
C1711                                               1 	(obj:1)
C1743                                               1 	(obj:1)
C1837                                               1 	(obj:1)
C1899                                               1 	(obj:1)
C1938                                               1 	(obj:1)
C1990                                               1 	(obj:1)
C2057                                               1 	(obj:1)
C2112                                               1 	(obj:1)
C2155                                               1 	(obj:1)
C2248                                               1 	(obj:1)
C2306                                               1 	(obj:1)
C2370                                               1 	(obj:1)
C2422                                               1 	(obj:1)
C2479                                               1 	(obj:1)
C2529                                               1 	(obj:1)
C2581                                               1 	(obj:1)
C2630                                               1 	(obj:1)
C2715                                               1 	(obj:1)
C2780                                               1 	(obj:1)
C2827                                               1 	(obj:1)
C2913                                               1 	(obj:1)
C2978                                               1 	(obj:1)
C3011                                               1 	(obj:1)
C3059                                               1 	(obj:1)
C3145                                               1 	(obj:1)
C3184                                               1 	(obj:1)
C3276                                               1 	(obj:1)
C3314                                               1 	(obj:1)
C3360                                               1 	(obj:1)
C3411                                               1 	(obj:1)
C3473                                               1 	(obj:1)
C3542                                               1 	(obj:1)
C3605                                               1 	(obj:1)
C0024                                               1 	(obj:1)
