analyze/results_flowersnark/final_miplib_symretope_if_extended_generating_set_cpx_v802__settings_final_nosym_norestarts__2__neos-525149.mps.gz.out
FILENAME:   /home/mcs001/s132664/testsets/IP/miplib2017/neos-525149.mps.gz
SETTINGS:   settings_final_nosym_norestarts
TIMELIMIT:  7200
OUTPUTNAME: final_miplib_symretope_if_extended_generating_set_cpx_v802__settings_final_nosym_norestarts__2__
BINNAME:    bin/sbcs.linux.x86_64.gnu.opt.cpx
BASENAME:   neos-525149.mps.gz
SEED:       2
@01 /home/mcs001/s132664/testsets/IP/miplib2017/neos-525149.mps.gz ===========
@02 neos-525149.mps.gz
@03 1686656530
SCIP version 8.0.2 [precision: 8 byte] [memory: block] [mode: optimized] [LP solver: CPLEX 20.1.0.0] [GitHash: 5f0473c]
Copyright (C) 2002-2022 Konrad-Zuse-Zentrum fuer Informationstechnik Berlin (ZIB)

Symretope propagation methods - (c) Jasper van Doornmalen, Christopher Hojny.
[GitHash: 2fd0484]

reading parameter file <../settings/settings_final_nosym_norestarts.set> ...

Changed settings:
limits/time = 7200
limits/restarts = 0
misc/usesymmetry = 0
randomization/randomseedshift = 2
constraints/orbisack/sepafreq = -1
constraints/symresack/sepafreq = -1
propagating/symmetry/detectsubgroups = FALSE
propagating/symmetry/usesymretopes = FALSE
propagating/symmetry/relabelsymretopes = 0
propagating/symmetry/ofsymcomptiming = 0
constraints/symretope/sepafreq = -1
constraints/symretope/peek = FALSE


solving problem ...

original problem has 3640 variables (3600 bin, 0 int, 0 impl, 40 cont) and 144120 constraints
presolving:
(round 1, fast)       0 del vars, 0 del conss, 0 add conss, 40 chg bounds, 0 chg sides, 0 chg coeffs, 0 upgd conss, 0 impls, 120 clqs
(round 2, exhaustive) 0 del vars, 141600 del conss, 0 add conss, 40 chg bounds, 0 chg sides, 0 chg coeffs, 0 upgd conss, 0 impls, 120 clqs
(round 3, exhaustive) 0 del vars, 141600 del conss, 0 add conss, 40 chg bounds, 0 chg sides, 0 chg coeffs, 120 upgd conss, 0 impls, 120 clqs
   (1.2s) probing: 51/3600 (1.4%) - 0 fixings, 0 aggregations, 0 implications, 0 bound changes
   (1.2s) probing aborted: 50/50 successive totally useless probings
presolving (4 rounds: 4 fast, 3 medium, 3 exhaustive):
 0 deleted vars, 141600 deleted constraints, 0 added constraints, 40 tightened bounds, 0 added holes, 0 changed sides, 0 changed coefficients
 0 implications, 120 cliques
presolved problem has 3640 variables (3600 bin, 0 int, 40 impl, 0 cont) and 2520 constraints
    120 constraints of type <setppc>
   2400 constraints of type <linear>
transformed objective value is always integral (scale: 1)
Presolving Time: 0.80

 time | node  | left  |LP iter|LP it/n|mem/heur|mdpt |vars |cons |rows |cuts |sepa|confs|strbr|  dualbound   | primalbound  |  gap   | compl. 
p 1.3s|     1 |     0 |     0 |     - |  clique|   0 |3640 |2520 |2520 |   0 |  0 |   0 |   0 | 9.000000e+00 | 2.066000e+03 |  Large | unknown
  1.4s|     1 |     0 |   103 |     - |   294M |   0 |3640 |2525 |2520 |   0 |  0 |   5 |   0 | 6.000000e+01 | 2.066000e+03 |3343.33%| unknown
  1.6s|     1 |     0 |   119 |     - |   295M |   0 |3640 |2525 |2523 |   3 |  1 |   5 |   0 | 6.000000e+01 | 2.066000e+03 |3343.33%| unknown
  1.7s|     1 |     0 |   154 |     - |   295M |   0 |3640 |2525 |2527 |   7 |  2 |   5 |   0 | 6.000000e+01 | 2.066000e+03 |3343.33%| unknown
  1.8s|     1 |     0 |   178 |     - |   296M |   0 |3640 |2525 |2530 |  10 |  3 |   5 |   0 | 6.000000e+01 | 2.066000e+03 |3343.33%| unknown
r 1.8s|     1 |     0 |   178 |     - |shifting|   0 |3640 |2522 |2530 |  10 |  3 |   5 |   0 | 6.000000e+01 | 6.500000e+01 |   8.33%| unknown
  1.8s|     1 |     0 |   198 |     - |   296M |   0 |3640 |2522 |2534 |  14 |  4 |   5 |   0 | 6.000000e+01 | 6.500000e+01 |   8.33%| unknown
  1.8s|     1 |     0 |   198 |     - |   296M |   0 |3640 |2522 |1562 |  14 |  4 |   5 |   0 | 6.000000e+01 | 6.500000e+01 |   8.33%| unknown
  1.8s|     1 |     0 |   198 |     - |   296M |   0 |3640 |2522 |1562 |  14 |  4 |   5 |   0 | 6.000000e+01 | 6.500000e+01 |   8.33%| unknown
  2.0s|     1 |     0 |   208 |     - |   296M |   0 |3640 |2522 |1564 |  16 |  5 |   5 |   0 | 6.000000e+01 | 6.500000e+01 |   8.33%| unknown
  2.1s|     1 |     0 |   215 |     - |   296M |   0 |3640 |2522 |1568 |  20 |  6 |   5 |   0 | 6.000000e+01 | 6.500000e+01 |   8.33%| unknown
  2.1s|     1 |     0 |   223 |     - |   298M |   0 |3640 |2522 |1570 |  22 |  7 |   5 |   0 | 6.000000e+01 | 6.500000e+01 |   8.33%| unknown
  2.2s|     1 |     0 |   244 |     - |   299M |   0 |3640 |2522 |1575 |  27 |  8 |   5 |   0 | 6.000000e+01 | 6.500000e+01 |   8.33%| unknown
  2.2s|     1 |     0 |   264 |     - |   300M |   0 |3640 |2522 |1580 |  32 |  9 |   5 |   0 | 6.000000e+01 | 6.500000e+01 |   8.33%| unknown
  2.2s|     1 |     0 |   277 |     - |   300M |   0 |3640 |2522 |1582 |  34 | 10 |   5 |   0 | 6.005000e+01 | 6.500000e+01 |   8.24%| unknown
 time | node  | left  |LP iter|LP it/n|mem/heur|mdpt |vars |cons |rows |cuts |sepa|confs|strbr|  dualbound   | primalbound  |  gap   | compl. 
  2.2s|     1 |     0 |   277 |     - |   300M |   0 |3640 |2522 |1582 |  34 | 10 |   5 |   0 | 6.005000e+01 | 6.500000e+01 |   8.24%| unknown
  2.3s|     1 |     0 |   290 |     - |   300M |   0 |3640 |2522 |1586 |  38 | 11 |   5 |   0 | 6.012500e+01 | 6.500000e+01 |   8.11%| unknown
  2.3s|     1 |     0 |   299 |     - |   300M |   0 |3640 |2522 |1591 |  43 | 13 |   5 |   0 | 6.012500e+01 | 6.500000e+01 |   8.11%| unknown
r 2.3s|     1 |     0 |   299 |     - |shifting|   0 |3640 |2522 |1591 |  43 | 13 |   5 |   0 | 6.012500e+01 | 6.400000e+01 |   6.44%| unknown
  2.3s|     1 |     0 |   305 |     - |   301M |   0 |3640 |2522 |1595 |  47 | 14 |   5 |   0 | 6.016667e+01 | 6.400000e+01 |   6.37%| unknown
  2.3s|     1 |     0 |   305 |     - |   301M |   0 |3640 |2522 |1595 |  47 | 14 |   5 |   0 | 6.016667e+01 | 6.400000e+01 |   6.37%| unknown
  2.3s|     1 |     0 |   309 |     - |   301M |   0 |3640 |2522 |1599 |  51 | 15 |   5 |   0 | 6.018750e+01 | 6.400000e+01 |   6.33%| unknown
  2.4s|     1 |     0 |   317 |     - |   301M |   0 |3640 |2522 |1601 |  53 | 16 |   5 |   0 | 6.025000e+01 | 6.400000e+01 |   6.22%| unknown
  2.4s|     1 |     0 |   328 |     - |   301M |   0 |3640 |2522 |1603 |  55 | 17 |   5 |   0 | 6.025000e+01 | 6.400000e+01 |   6.22%| unknown
  2.4s|     1 |     0 |   344 |     - |   301M |   0 |3640 |2522 |1601 |  58 | 18 |   5 |   0 | 6.025000e+01 | 6.400000e+01 |   6.22%| unknown
  2.4s|     1 |     0 |   358 |     - |   301M |   0 |3640 |2522 |1603 |  60 | 19 |   5 |   0 | 6.025000e+01 | 6.400000e+01 |   6.22%| unknown
  2.5s|     1 |     0 |   390 |     - |   301M |   0 |3640 |2522 |1605 |  62 | 20 |   5 |   0 | 6.025000e+01 | 6.400000e+01 |   6.22%| unknown
  2.5s|     1 |     0 |   402 |     - |   301M |   0 |3640 |2522 |1606 |  63 | 21 |   5 |   0 | 6.027273e+01 | 6.400000e+01 |   6.18%| unknown
  2.5s|     1 |     0 |   405 |     - |   301M |   0 |3640 |2522 |1607 |  64 | 22 |   5 |   0 | 6.027273e+01 | 6.400000e+01 |   6.18%| unknown
  2.5s|     1 |     0 |   406 |     - |   301M |   0 |3640 |2522 |1608 |  65 | 23 |   5 |   0 | 6.027586e+01 | 6.400000e+01 |   6.18%| unknown
 time | node  | left  |LP iter|LP it/n|mem/heur|mdpt |vars |cons |rows |cuts |sepa|confs|strbr|  dualbound   | primalbound  |  gap   | compl. 
d 2.7s|     1 |     0 |  1077 |     - |farkasdi|   0 |3640 |1550 |1608 |   0 | 25 |   5 |   0 | 6.027586e+01 | 6.100000e+01 |   1.20%| unknown
  2.7s|     1 |     0 |  1077 |     - |   302M |   0 |3640 |1550 |1608 |  65 | 25 |   5 |   0 | 6.100000e+01 | 6.100000e+01 |   0.00%| unknown

SCIP Status        : problem is solved [optimal solution found]
Solving Time (sec) : 2.70
Solving Nodes      : 1
Primal Bound       : +6.10000000000000e+01 (7 solutions)
Dual Bound         : +6.10000000000000e+01
Gap                : 0.00 %
SCIP Status        : problem is solved [optimal solution found]
Total Time         :       4.17
  solving          :       2.70
  presolving       :       0.80 (included in solving)
  reading          :       1.47
  copying          :       0.01 (1 #copies) (minimal 0.01, maximal 0.01, average 0.01)
Original Problem   :
  Problem name     : neos-525149
  Variables        : 3640 (3600 binary, 0 integer, 0 implicit integer, 40 continuous)
  Constraints      : 144120 initial, 144120 maximal
  Objective        : minimize, 3640 non-zeros (abs.min = 1, abs.max = 1000)
Presolved Problem  :
  Problem name     : t_neos-525149
  Variables        : 3640 (3600 binary, 0 integer, 40 implicit integer, 0 continuous)
  Constraints      : 2520 initial, 2525 maximal
  Objective        : minimize, 3100 non-zeros (abs.min = 1, abs.max = 1000)
  Nonzeros         : 32400 constraint, 3984 clique table
Presolvers         :   ExecTime  SetupTime  Calls  FixedVars   AggrVars   ChgTypes  ChgBounds   AddHoles    DelCons    AddCons   ChgSides   ChgCoefs
  boundshift       :       0.00       0.00      0          0          0          0          0          0          0          0          0          0
  convertinttobin  :       0.00       0.00      0          0          0          0          0          0          0          0          0          0
  domcol           :       0.00       0.00      1          0          0          0          0          0          0          0          0          0
  dualagg          :       0.00       0.00      0          0          0          0          0          0          0          0          0          0
  dualcomp         :       0.00       0.00      0          0          0          0          0          0          0          0          0          0
  dualinfer        :       0.00       0.00      0          0          0          0          0          0          0          0          0          0
  dualsparsify     :       0.01       0.00      1          0          0          0          0          0          0          0          0          0
  gateextraction   :       0.00       0.00      0          0          0          0          0          0          0          0          0          0
  implics          :       0.00       0.00      3          0          0          0          0          0          0          0          0          0
  inttobinary      :       0.00       0.00      0          0          0          0          0          0          0          0          0          0
  qpkktref         :       0.00       0.00      0          0          0          0          0          0          0          0          0          0
  redvub           :       0.00       0.00      0          0          0          0          0          0          0          0          0          0
  sparsify         :       0.07       0.00      1          0          0          0          0          0          0          0          0          0
  stuffing         :       0.00       0.00      0          0          0          0          0          0          0          0          0          0
  trivial          :       0.00       0.00      4          0          0          0          0          0          0          0          0          0
  tworowbnd        :       0.00       0.00      0          0          0          0          0          0          0          0          0          0
  dualfix          :       0.00       0.00      4          0          0          0          0          0          0          0          0          0
  genvbounds       :       0.00       0.00      0          0          0          0          0          0          0          0          0          0
  probing          :       0.03       0.00      1          0          0          0          0          0          0          0          0          0
  pseudoobj        :       0.00       0.00      0          0          0          0          0          0          0          0          0          0
  symmetry         :       0.00       0.00      0          0          0          0          0          0          0          0          0          0
  vbounds          :       0.00       0.00      1          0          0          0          0          0          0          0          0          0
  setppc           :       0.00       0.00      3          0          0          0          0          0          0          0          0          0
  linear           :       0.54       0.20      7          0          0          0         40          0     141600          0          0          0
  logicor          :       0.00       0.00      0          0          0          0          0          0          0          0          0          0
  benders          :       0.00       0.00      0          0          0          0          0          0          0          0          0          0
  components       :       0.00       0.00      1          0          0          0          0          0          0          0          0          0
  root node        :          -          -      -       1608          -          -       1726          -          -          -          -          -
Constraints        :     Number  MaxNumber  #Separate #Propagate    #EnfoLP    #EnfoRelax  #EnfoPS    #Check   #ResProp    Cutoffs    DomReds       Cuts    Applied      Conss   Children
  benderslp        :          0          0          0          0          0          0          0         40          0          0          0          0          0          0          0
  integral         :          0          0          0          0          0          0          0         40          0          0          0          0          0          0          0
  setppc           :        120        120         23       5461          0          0          0         21        212          2          0          0          0          0          0
  linear           :       2400       2400         23       5445          0          0          0          7          0          0          0          0          0          0          0
  logicor          :          0+         5         23         37          0          0          0          0          0          0          0          0          0          0          0
  benders          :          0          0          0          0          0          0          0          8          0          0          0          0          0          0          0
  countsols        :          0          0          0          0          0          0          0          8          0          0          0          0          0          0          0
  components       :          0          0          0          0          0          0          0          0          0          0          0          0          0          0          0
Constraint Timings :  TotalTime  SetupTime   Separate  Propagate     EnfoLP     EnfoPS     EnfoRelax   Check    ResProp    SB-Prop
  benderslp        :       0.00       0.00       0.00       0.00       0.00       0.00       0.00       0.00       0.00       0.00
  integral         :       0.00       0.00       0.00       0.00       0.00       0.00       0.00       0.00       0.00       0.00
  setppc           :       0.13       0.00       0.00       0.12       0.00       0.00       0.00       0.00       0.00       0.00
  linear           :       0.25       0.20       0.01       0.03       0.00       0.00       0.00       0.00       0.00       0.00
  logicor          :       0.00       0.00       0.00       0.00       0.00       0.00       0.00       0.00       0.00       0.00
  benders          :       0.00       0.00       0.00       0.00       0.00       0.00       0.00       0.00       0.00       0.00
  countsols        :       0.00       0.00       0.00       0.00       0.00       0.00       0.00       0.00       0.00       0.00
  components       :       0.00       0.00       0.00       0.00       0.00       0.00       0.00       0.00       0.00       0.00
Propagators        : #Propagate   #ResProp    Cutoffs    DomReds
  dualfix          :          3          0          0          0
  genvbounds       :          0          0          0          0
  nlobbt           :          0          0          0          0
  obbt             :          0          0          0          0
  probing          :          0          0          0          0
  pseudoobj        :         35          0          0       1608
  redcost          :         27          0          0        118
  rootredcost      :          0          0          0          0
  symmetry         :          0          0          0          0
  vbounds          :        765          0          0          0
Propagator Timings :  TotalTime  SetupTime   Presolve  Propagate    ResProp    SB-Prop
  dualfix          :       0.00       0.00       0.00       0.00       0.00       0.00
  genvbounds       :       0.00       0.00       0.00       0.00       0.00       0.00
  nlobbt           :       0.00       0.00       0.00       0.00       0.00       0.00
  obbt             :       0.00       0.00       0.00       0.00       0.00       0.00
  probing          :       0.03       0.00       0.03       0.00       0.00       0.00
  pseudoobj        :       0.01       0.00       0.00       0.01       0.00       0.00
  redcost          :       0.01       0.00       0.00       0.01       0.00       0.00
  rootredcost      :       0.00       0.00       0.00       0.00       0.00       0.00
  symmetry         :       0.00       0.00       0.00       0.00       0.00       0.00
  vbounds          :       0.00       0.00       0.00       0.00       0.00       0.00
Conflict Analysis  :       Time      Calls    Success    DomReds  Conflicts   Literals    Reconvs ReconvLits   Dualrays   Nonzeros   LP Iters   (pool size: [10000,10000])
  propagation      :       0.00          2          2          -          2       60.0          0        0.0          -          -          -
  infeasible LP    :       0.00          0          0          -          0        0.0          0        0.0          0        0.0          0
  bound exceed. LP :       0.01          3          3          -          3        3.0          0        0.0          0        0.0         30
  strong branching :       0.00          0          0          -          0        0.0          0        0.0          -          -          0
  pseudo solution  :       0.00          0          0          -          0        0.0          0        0.0          -          -          -
  applied globally :       0.00          -          -          0          5       25.8          -          -          0          -          -
  applied locally  :          -          -          -          0          0        0.0          -          -          0          -          -
Separators         :   ExecTime  SetupTime      Calls  RootCalls    Cutoffs    DomReds  FoundCuts ViaPoolAdd  DirectAdd    Applied ViaPoolApp  DirectApp      Conss
  cut pool         :       0.02          -         43         43          -          -        592        234          -          -          -          -          -    (maximal pool size:        592)
  aggregation      :       0.09       0.00         23         23          0          0         42        180          0         33         33          0          0
  > cmir           :          -          -          -          -          -          -          -        158          0         14         14          0          -
  > flowcover      :          -          -          -          -          -          -          -         22          0         19         19          0          -
  > knapsackcover  :          -          -          -          -          -          -          -          0          0          0          0          0          -
  cgmip            :       0.00       0.00          0          0          0          0          0          0          0          0          0          0          0
  clique           :       0.01       0.00         23         23          0          0          0          0          0          0          0          0          0
  closecuts        :       0.00       0.00          0          0          0          0          0          0          0          0          0          0          0
  convexproj       :       0.00       0.00          0          0          0          0          0          0          0          0          0          0          0
  disjunctive      :       0.00       0.00          0          0          0          0          0          0          0          0          0          0          0
  eccuts           :       0.00       0.00          0          0          0          0          0          0          0          0          0          0          0
  gauge            :       0.00       0.00          0          0          0          0          0          0          0          0          0          0          0
  gomory           :       0.49       0.00         10         10          0          0        510         24          0          8          8          0          0
  > gomorymi       :          -          -          -          -          -          -          -          2          0          2          2          0          -
  > strongcg       :          -          -          -          -          -          -          -         22          0          6          6          0          -
  impliedbounds    :       0.00       0.00         23         23          0          0          0          0          0          0          0          0          0
  interminor       :       0.00       0.00          0          0          0          0          0          0          0          0          0          0          0
  intobj           :       0.00       0.00          0          0          0          0          0          0          0          0          0          0          0
  mcf              :       0.00       0.00          1          1          0          0          0          0          0          0          0          0          0
  minor            :       0.00       0.00          0          0          0          0          0          0          0          0          0          0          0
  mixing           :       0.00       0.00         23         23          0          0          0          0          0          0          0          0          0
  oddcycle         :       0.00       0.00          0          0          0          0          0          0          0          0          0          0          0
  rapidlearning    :       0.06       0.00          1          1          0          0          0          0          0          0          0          0          0
  rlt              :       0.00       0.00         10         10          0          0          0          0          0          0          0          0          0
  zerohalf         :       0.05       0.00         20         20          0          0         40         30          0         24         24          0          0
Cutselectors       :   ExecTime  SetupTime      Calls  RootCalls   Selected     Forced   Filtered  RootSelec   RootForc   RootFilt 
  hybrid           :       0.00       0.00         22         22         65          0        169         65          0        169
Pricers            :   ExecTime  SetupTime      Calls       Vars
  problem variables:       0.00          -          0          0
Branching Rules    :   ExecTime  SetupTime   BranchLP  BranchExt   BranchPS    Cutoffs    DomReds       Cuts      Conss   Children
  allfullstrong    :       0.00       0.00          0          0          0          0          0          0          0          0
  cloud            :       0.00       0.00          0          0          0          0          0          0          0          0
  distribution     :       0.00       0.00          0          0          0          0          0          0          0          0
  fullstrong       :       0.00       0.00          0          0          0          0          0          0          0          0
  inference        :       0.00       0.00          0          0          0          0          0          0          0          0
  leastinf         :       0.00       0.00          0          0          0          0          0          0          0          0
  lookahead        :       0.00       0.00          0          0          0          0          0          0          0          0
  mostinf          :       0.00       0.00          0          0          0          0          0          0          0          0
  multaggr         :       0.00       0.00          0          0          0          0          0          0          0          0
  nodereopt        :       0.00       0.00          0          0          0          0          0          0          0          0
  pscost           :       0.00       0.00          0          0          0          0          0          0          0          0
  random           :       0.00       0.00          0          0          0          0          0          0          0          0
  relpscost        :       0.00       0.00          0          0          0          0          0          0          0          0
  vanillafullstrong:       0.00       0.00          0          0          0          0          0          0          0          0
Primal Heuristics  :   ExecTime  SetupTime      Calls      Found       Best
  LP solutions     :       0.00          -          -          0          0
  relax solutions  :       0.00          -          -          0          0
  pseudo solutions :       0.00          -          -          0          0
  strong branching :       0.00          -          -          0          0
  actconsdiving    :       0.00       0.00          0          0          0
  adaptivediving   :       0.00       0.00          0          0          0
  alns             :       0.00       0.00          0          0          0
  bound            :       0.00       0.00          0          0          0
  clique           :       0.04       0.00          1          1          1
  coefdiving       :       0.00       0.00          0          0          0
  completesol      :       0.00       0.00          0          0          0
  conflictdiving   :       0.00       0.00          0          0          0
  crossover        :       0.00       0.00          0          0          0
  dins             :       0.00       0.00          0          0          0
  distributiondivin:       0.00       0.00          0          0          0
  dps              :       0.00       0.00          0          0          0
  dualval          :       0.00       0.00          0          0          0
  farkasdiving     :       0.16       0.00          1          1          1
  feaspump         :       0.00       0.00          0          0          0
  fixandinfer      :       0.00       0.00          0          0          0
  fracdiving       :       0.00       0.00          0          0          0
  gins             :       0.00       0.00          0          0          0
  guideddiving     :       0.00       0.00          0          0          0
  indicator        :       0.00       0.00          0          0          0
  intdiving        :       0.00       0.00          0          0          0
  intshifting      :       0.00       0.00          0          0          0
  linesearchdiving :       0.00       0.00          0          0          0
  localbranching   :       0.00       0.00          0          0          0
  locks            :       0.04       0.00          1          0          0
  lpface           :       0.00       0.00          0          0          0
  mpec             :       0.00       0.00          0          0          0
  multistart       :       0.00       0.00          0          0          0
  mutation         :       0.00       0.00          0          0          0
  nlpdiving        :       0.00       0.00          0          0          0
  objpscostdiving  :       0.00       0.00          0          0          0
  octane           :       0.00       0.00          0          0          0
  ofins            :       0.00       0.00          0          0          0
  oneopt           :       0.00       0.00          3          0          0
  padm             :       0.00       0.00          0          0          0
  proximity        :       0.00       0.00          0          0          0
  pscostdiving     :       0.00       0.00          0          0          0
  randrounding     :       0.21       0.00         23          0          0
  rens             :       0.00       0.00          0          0          0
  reoptsols        :       0.00       0.00          0          0          0
  repair           :       0.00       0.00          0          0          0
  rins             :       0.00       0.00          0          0          0
  rootsoldiving    :       0.00       0.00          0          0          0
  rounding         :       0.01       0.00         23          0          0
  shiftandpropagate:       0.00       0.00          0          0          0
  shifting         :       0.03       0.00         23          5          2
  simplerounding   :       0.00       0.00          0          0          0
  subnlp           :       0.00       0.00          0          0          0
  trivial          :       0.00       0.00          2          0          0
  trivialnegation  :       0.00       0.00          0          0          0
  trustregion      :       0.00       0.00          0          0          0
  trysol           :       0.00       0.00          0          0          0
  twoopt           :       0.00       0.00          0          0          0
  undercover       :       0.00       0.00          0          0          0
  vbounds          :       0.06       0.00          1          0          0
  veclendiving     :       0.00       0.00          0          0          0
  zeroobj          :       0.00       0.00          0          0          0
  zirounding       :       0.00       0.00          1          0          0
  other solutions  :          -          -          -          0          -
LP                 :       Time      Calls Iterations  Iter/call   Iter/sec  Time-0-It Calls-0-It    ItLimit
  primal LP        :       0.01          1          0       0.00       0.00       0.01          1
  dual LP          :       0.06         27        406      17.65    7052.90       0.00          4
  lex dual LP      :       0.00          0          0       0.00          -
  barrier LP       :       0.00          0          0       0.00          -       0.00          0
  resolve instable :       0.00          0          0       0.00          -
  diving/probing LP:       0.09        102        671       6.58    7073.58
  strong branching :       0.00          0          0       0.00          -          -          -          0
    (at root node) :          -          0          0       0.00          -
  conflict analysis:       0.00          3         30      10.00          -
B&B Tree           :
  number of runs   :          1
  nodes            :          1 (0 internal, 1 leaves)
  feasible leaves  :          0
  infeas. leaves   :          0
  objective leaves :          1
  nodes (total)    :          1 (0 internal, 1 leaves)
  nodes left       :          0
  max depth        :          0
  max depth (total):          0
  backtracks       :          0 (0.0%)
  early backtracks :          0 (0.0%)
  nodes exc. ref.  :          0 (0.0%)
  delayed cutoffs  :          0
  repropagations   :          0 (0 domain reductions, 0 cutoffs)
  avg switch length:       2.00
  switching time   :       0.00
Root Node          :
  First LP value   : +6.00000000000000e+01
  First LP Iters   :        103 (5847.95 Iter/sec)
  First LP Time    :       0.02
  Final Dual Bound : +6.10000000000000e+01
  Final Root Iters :        406
  Root LP Estimate :                     -
Solution           :
  Solutions found  :          7 (4 improvements)
  First Solution   : +2.06600000000000e+03   (in run 1, after 1 nodes, 1.27 seconds, depth 61, found by <clique>)
  Gap First Sol.   :   22855.56 %
  Gap Last Sol.    :       1.20 %
  Primal Bound     : +6.10000000000000e+01   (in run 1, after 1 nodes, 2.70 seconds, depth 103, found by <farkasdiving>)
  Dual Bound       : +6.10000000000000e+01
  Gap              :       0.00 %
Integrals          :      Total       Avg%
  primal-dual      :     183.38      67.98
  primal-ref       :          -          - (not evaluated)
  dual-ref         :          -          - (not evaluated)
written solution information to file <results/final_miplib_symretope_if_extended_generating_set_cpx_v802__settings_final_nosym_norestarts__2__neos-525149.mps.gz.sol>
@04 1686656534
